9099.49,66.84,82.91
9269.64,65.61,81.39
10483.47,58.02,71.97
10724.24,56.71,70.35
10191.69,59.68,74.03
10783.94,56.4,69.96
9903.09,61.42,76.19
9762.03,62.3,77.29
9870.73,61.62,76.44
9879.41,61.56,76.37
9420.03,64.57,80.09
10682.2,56.94,70.63
10578.16,57.5,71.33
10020.42,60.7,75.29
9005.05,67.54,83.78
9302.12,65.38,81.11
10634.28,57.19,70.95
9488.57,64.1,79.52
9373.47,64.89,80.49
9745.33,62.41,77.42
